26227.5
0 18 50 23 70 56 25 61 81 7 12 37 84 89 48 94 3 74 46 29 6 59 9 99 98 5 64 69 72 13 44 85 8 47 77 11 33 66 14 57 54 91 39 97 82 87 17 71 88 92 35 68 43 67 73 78 49 27 2 83 86 34 45 26 19 55 4 40 42 79 15 80 58 24 90 36 76 16 31 41 62 53 51 60 21 93 63 1 10 20 38 30 65 22 28 75 95 52 96 32 
